objective value:                                11587
t_x_2                                               1 	(obj:72)
t_x_5                                               1 	(obj:59)
t_x_6                                               1 	(obj:17)
t_x_8                                               1 	(obj:9)
t_x_9                                               1 	(obj:70)
t_x_12                                              1 	(obj:51)
t_x_13                                              1 	(obj:14)
t_x_22                                              1 	(obj:5)
t_x_25                                              1 	(obj:8)
t_x_28                                              1 	(obj:47)
t_x_32                                              1 	(obj:39)
t_x_34                                              1 	(obj:11)
t_x_36                                              1 	(obj:39)
t_x_38                                              1 	(obj:11)
t_x_40                                              1 	(obj:3)
t_x_41                                              1 	(obj:21)
t_x_43                                              1 	(obj:0)
t_x_44                                              1 	(obj:57)
t_x_47                                              1 	(obj:14)
t_x_50                                              1 	(obj:27)
t_x_51                                              1 	(obj:32)
t_x_52                                              1 	(obj:45)
t_x_55                                              1 	(obj:38)
t_x_57                                              1 	(obj:1)
t_x_58                                              1 	(obj:48)
t_x_59                                              1 	(obj:6)
t_x_60                                              1 	(obj:23)
t_x_61                                              1 	(obj:8)
t_x_62                                              1 	(obj:46)
t_x_66                                              1 	(obj:55)
t_x_67                                              1 	(obj:14)
t_x_70                                              1 	(obj:0)
t_x_76                                              1 	(obj:60)
t_x_78                                              1 	(obj:41)
t_x_79                                              1 	(obj:73)
t_x_82                                              1 	(obj:26)
t_x_83                                              1 	(obj:12)
t_x_87                                              1 	(obj:20)
t_x_89                                              1 	(obj:1)
t_x_91                                              1 	(obj:15)
t_x_92                                              1 	(obj:7)
t_x_94                                              1 	(obj:37)
t_x_95                                              1 	(obj:6)
t_x_96                                              1 	(obj:20)
t_x_99                                              1 	(obj:5)
t_x_103                                             1 	(obj:28)
t_x_104                                             1 	(obj:2)
t_x_107                                             1 	(obj:5)
t_x_108                                             1 	(obj:22)
t_x_109                                             1 	(obj:8)
t_x_113                                             1 	(obj:30)
t_x_114                                             1 	(obj:23)
t_x_115                                             1 	(obj:13)
t_x_119                                             1 	(obj:21)
t_x_123                                             1 	(obj:8)
t_x_128                                             1 	(obj:23)
t_x_132                                             1 	(obj:19)
t_x_133                                             1 	(obj:1)
t_x_134                                             1 	(obj:19)
t_x_139                                             1 	(obj:14)
t_x_140                                             1 	(obj:8)
t_x_144                                             1 	(obj:14)
t_x_145                                             1 	(obj:7)
t_x_152                                             1 	(obj:24)
t_x_153                                             1 	(obj:6)
t_x_155                                             1 	(obj:20)
t_x_156                                             1 	(obj:8)
t_x_159                                             1 	(obj:4)
t_x_161                                             1 	(obj:12)
t_x_162                                             1 	(obj:37)
t_x_165                                             1 	(obj:23)
t_x_166                                             1 	(obj:4)
t_x_169                                             1 	(obj:3)
t_x_172                                             1 	(obj:17)
t_x_176                                             1 	(obj:50)
t_x_178                                             1 	(obj:25)
t_x_179                                             1 	(obj:6)
t_x_181                                             1 	(obj:17)
t_x_182                                             1 	(obj:50)
t_x_184                                             1 	(obj:25)
t_x_186                                             1 	(obj:28)
t_x_188                                             1 	(obj:0)
t_x_194                                             1 	(obj:3)
t_x_196                                             1 	(obj:9)
t_x_197                                             1 	(obj:25)
t_x_202                                             1 	(obj:6)
t_x_203                                             1 	(obj:0)
t_x_207                                             1 	(obj:50)
t_x_208                                             1 	(obj:35)
t_x_214                                             1 	(obj:35)
t_x_215                                             1 	(obj:10)
t_x_217                                             1 	(obj:12)
t_x_220                                             1 	(obj:13)
t_x_223                                             1 	(obj:32)
t_x_225                                             1 	(obj:42)
t_x_228                                             1 	(obj:16)
t_x_229                                             1 	(obj:9)
t_x_238                                             1 	(obj:4)
t_x_239                                             1 	(obj:33)
t_x_240                                             1 	(obj:24)
t_x_241                                             1 	(obj:7)
t_x_242                                             1 	(obj:67)
t_x_243                                             1 	(obj:6)
t_x_245                                             1 	(obj:44)
t_x_247                                             1 	(obj:0)
t_x_248                                             1 	(obj:3)
t_x_249                                             1 	(obj:2)
t_x_250                                             1 	(obj:48)
t_x_252                                             1 	(obj:52)
t_x_254                                             1 	(obj:2)
t_x_255                                             1 	(obj:1)
t_x_257                                             1 	(obj:7)
t_x_264                                             1 	(obj:41)
t_x_267                                             1 	(obj:35)
t_x_280                                             1 	(obj:19)
t_x_281                                             1 	(obj:14)
t_x_283                                             1 	(obj:10)
t_x_284                                             1 	(obj:12)
t_x_287                                             1 	(obj:8)
t_x_288                                             1 	(obj:2)
t_x_296                                             1 	(obj:21)
t_x_305                                             1 	(obj:4)
t_x_326                                             1 	(obj:5)
t_x_341                                             1 	(obj:14)
t_x_342                                             1 	(obj:1)
t_x_343                                             1 	(obj:29)
t_x_348                                             1 	(obj:13)
t_x_350                                             1 	(obj:35)
t_x_355                                             1 	(obj:1)
t_x_366                                             1 	(obj:20)
t_x_370                                             1 	(obj:9)
t_x_371                                             1 	(obj:1)
t_x_373                                             1 	(obj:8)
t_x_377                                             1 	(obj:24)
t_x_378                                             1 	(obj:4)
t_x_379                                             1 	(obj:7)
t_x_381                                             1 	(obj:4)
t_x_382                                             1 	(obj:12)
t_x_385                                             1 	(obj:1)
t_x_393                                             1 	(obj:34)
t_x_395                                             1 	(obj:5)
t_x_396                                             1 	(obj:22)
t_x_397                                             1 	(obj:19)
t_x_403                                             1 	(obj:33)
t_x_408                                             1 	(obj:22)
t_x_409                                             1 	(obj:8)
t_x_412                                             1 	(obj:29)
t_x_421                                             1 	(obj:1)
t_x_424                                             1 	(obj:41)
t_x_430                                             1 	(obj:4)
t_x_431                                             1 	(obj:5)
t_x_432                                             1 	(obj:14)
t_x_433                                             1 	(obj:33)
t_x_435                                             1 	(obj:66)
t_x_437                                             1 	(obj:11)
t_x_440                                             1 	(obj:7)
t_x_442                                             1 	(obj:45)
t_x_448                                             1 	(obj:12)
t_x_453                                             1 	(obj:15)
t_x_454                                             1 	(obj:3)
t_x_461                                             1 	(obj:8)
t_x_469                                             1 	(obj:1)
t_x_473                                             1 	(obj:33)
t_x_477                                             1 	(obj:30)
t_x_480                                             1 	(obj:8)
t_x_481                                             1 	(obj:5)
t_x_483                                             1 	(obj:25)
t_x_486                                             1 	(obj:16)
t_x_490                                             1 	(obj:1)
t_x_491                                             1 	(obj:11)
t_x_492                                             1 	(obj:5)
t_x_494                                             1 	(obj:22)
t_x_495                                             1 	(obj:18)
t_x_498                                             1 	(obj:7)
t_x_501                                             1 	(obj:6)
t_x_502                                             1 	(obj:31)
t_x_504                                             1 	(obj:46)
t_x_510                                             1 	(obj:5)
t_x_512                                             1 	(obj:6)
t_x_515                                             1 	(obj:35)
t_x_517                                             1 	(obj:13)
t_x_518                                             1 	(obj:0)
t_x_520                                             1 	(obj:38)
t_x_525                                             1 	(obj:2)
t_x_527                                             1 	(obj:37)
t_x_529                                             1 	(obj:16)
t_x_532                                             1 	(obj:16)
t_x_535                                             1 	(obj:17)
t_x_542                                             1 	(obj:45)
t_x_543                                             1 	(obj:20)
t_x_545                                             1 	(obj:2)
t_x_547                                             1 	(obj:62)
t_x_553                                             1 	(obj:24)
t_x_555                                             1 	(obj:29)
t_x_562                                             1 	(obj:26)
t_x_566                                             1 	(obj:1)
t_x_575                                             1 	(obj:4)
t_x_580                                             1 	(obj:22)
t_x_581                                             1 	(obj:5)
t_x_584                                             1 	(obj:18)
t_x_589                                             1 	(obj:4)
t_x_591                                             1 	(obj:35)
t_x_592                                             1 	(obj:8)
t_x_602                                             1 	(obj:20)
t_x_606                                             1 	(obj:12)
t_x_609                                             1 	(obj:11)
t_x_610                                             1 	(obj:29)
t_x_612                                             1 	(obj:9)
t_x_614                                             1 	(obj:16)
t_x_625                                             1 	(obj:44)
t_x_628                                             1 	(obj:31)
t_x_635                                             1 	(obj:43)
t_x_640                                             1 	(obj:6)
t_x_648                                             1 	(obj:7)
t_x_657                                             1 	(obj:7)
t_x_659                                             1 	(obj:16)
t_x_660                                             1 	(obj:37)
t_x_662                                             1 	(obj:0)
t_x_663                                             1 	(obj:21)
t_x_664                                             1 	(obj:16)
t_x_665                                             1 	(obj:17)
t_x_666                                             1 	(obj:7)
t_x_667                                             1 	(obj:2)
t_x_670                                             1 	(obj:2)
t_x_671                                             1 	(obj:17)
t_x_672                                             1 	(obj:22)
t_x_674                                             1 	(obj:9)
t_x_675                                             1 	(obj:5)
t_x_676                                             1 	(obj:64)
t_x_680                                             1 	(obj:29)
t_x_681                                             1 	(obj:9)
t_x_683                                             1 	(obj:25)
t_x_688                                             1 	(obj:10)
t_x_690                                             1 	(obj:56)
t_x_691                                             1 	(obj:15)
t_x_694                                             1 	(obj:9)
t_x_696                                             1 	(obj:14)
t_x_698                                             1 	(obj:8)
t_x_701                                             1 	(obj:6)
t_x_705                                             1 	(obj:0)
t_x_706                                             1 	(obj:57)
t_x_713                                             1 	(obj:5)
t_x_716                                             1 	(obj:3)
t_x_717                                             1 	(obj:65)
t_x_723                                             1 	(obj:1)
t_x_727                                             1 	(obj:1)
t_x_728                                             1 	(obj:23)
t_x_729                                             1 	(obj:6)
t_x_733                                             1 	(obj:32)
t_x_734                                             1 	(obj:9)
t_x_740                                             1 	(obj:23)
t_x_745                                             1 	(obj:60)
t_x_751                                             1 	(obj:26)
t_x_759                                             1 	(obj:31)
t_x_761                                             1 	(obj:7)
t_x_762                                             1 	(obj:3)
t_x_763                                             1 	(obj:23)
t_x_768                                             1 	(obj:3)
t_x_772                                             1 	(obj:6)
t_x_776                                             1 	(obj:11)
t_x_779                                             1 	(obj:62)
t_x_789                                             1 	(obj:15)
t_x_798                                             1 	(obj:29)
t_x_799                                             1 	(obj:41)
t_x_803                                             1 	(obj:28)
t_x_804                                             1 	(obj:20)
t_x_805                                             1 	(obj:6)
t_x_806                                             1 	(obj:1)
t_x_812                                             1 	(obj:16)
t_x_813                                             1 	(obj:8)
t_x_815                                             1 	(obj:37)
t_x_827                                             1 	(obj:7)
t_x_831                                             1 	(obj:29)
t_x_832                                             1 	(obj:49)
t_x_834                                             1 	(obj:19)
t_x_839                                             1 	(obj:20)
t_x_845                                             1 	(obj:53)
t_x_848                                             1 	(obj:66)
t_x_849                                             1 	(obj:15)
t_x_852                                             1 	(obj:5)
t_x_855                                             1 	(obj:11)
t_x_857                                             1 	(obj:8)
t_x_863                                             1 	(obj:12)
t_x_867                                             1 	(obj:17)
t_x_869                                             1 	(obj:14)
t_x_871                                             1 	(obj:0)
t_x_874                                             1 	(obj:0)
t_x_875                                             1 	(obj:27)
t_x_886                                             1 	(obj:36)
t_x_889                                             1 	(obj:13)
t_x_890                                             1 	(obj:6)
t_x_894                                             1 	(obj:0)
t_x_901                                             1 	(obj:4)
t_x_906                                             1 	(obj:27)
t_x_907                                             1 	(obj:27)
t_x_910                                             1 	(obj:3)
t_x_912                                             1 	(obj:30)
t_x_913                                             1 	(obj:18)
t_x_919                                             1 	(obj:20)
t_x_922                                             1 	(obj:1)
t_x_923                                             1 	(obj:19)
t_x_928                                             1 	(obj:11)
t_x_929                                             1 	(obj:1)
t_x_937                                             1 	(obj:28)
t_x_940                                             1 	(obj:0)
t_x_957                                             1 	(obj:25)
t_x_960                                             1 	(obj:19)
t_x_967                                             1 	(obj:0)
t_x_971                                             1 	(obj:8)
t_x_974                                             1 	(obj:8)
t_x_977                                             1 	(obj:13)
t_x_978                                             1 	(obj:12)
t_x_991                                             1 	(obj:0)
t_x_993                                             1 	(obj:3)
t_x_994                                             1 	(obj:30)
t_x_995                                             1 	(obj:54)
t_x_996                                             1 	(obj:12)
t_x_997                                             1 	(obj:81)
t_x_1000                                            1 	(obj:42)
t_x_1009                                            1 	(obj:13)
t_x_1011                                            1 	(obj:5)
t_x_1019                                            1 	(obj:16)
t_x_1020                                            1 	(obj:30)
t_x_1021                                            1 	(obj:6)
t_x_1023                                            1 	(obj:43)
t_x_1024                                            1 	(obj:16)
t_x_1030                                            1 	(obj:25)
t_x_1032                                            1 	(obj:16)
t_x_1042                                            1 	(obj:7)
t_x_1052                                            1 	(obj:14)
t_x_1063                                            1 	(obj:12)
t_x_1064                                            1 	(obj:46)
t_x_1066                                            1 	(obj:14)
t_x_1070                                            1 	(obj:40)
t_x_1073                                            1 	(obj:22)
t_x_1080                                            1 	(obj:6)
t_x_1082                                            1 	(obj:37)
t_x_1084                                            1 	(obj:4)
t_x_1085                                            1 	(obj:12)
t_x_1087                                            1 	(obj:20)
t_x_1090                                            1 	(obj:33)
t_x_1092                                            1 	(obj:36)
t_x_1094                                            1 	(obj:10)
t_x_1095                                            1 	(obj:32)
t_x_1096                                            1 	(obj:12)
t_x_1097                                            1 	(obj:27)
t_x_1098                                            1 	(obj:19)
t_x_1099                                            1 	(obj:11)
t_x_1106                                            1 	(obj:16)
t_x_1109                                            1 	(obj:20)
t_x_1112                                            1 	(obj:34)
t_x_1113                                            1 	(obj:33)
t_x_1121                                            1 	(obj:25)
t_x_1130                                            1 	(obj:14)
t_x_1132                                            1 	(obj:33)
t_x_1134                                            1 	(obj:14)
t_x_1137                                            1 	(obj:45)
t_x_1139                                            1 	(obj:17)
t_x_1150                                            1 	(obj:28)
t_x_1156                                            1 	(obj:26)
t_x_1157                                            1 	(obj:38)
t_x_1162                                            1 	(obj:41)
t_x_1165                                            1 	(obj:16)
t_x_1169                                            1 	(obj:22)
t_x_1172                                            1 	(obj:18)
t_x_1181                                            1 	(obj:10)
t_x_1182                                            1 	(obj:7)
t_x_1183                                            1 	(obj:2)
t_x_1186                                            1 	(obj:4)
t_x_1190                                            1 	(obj:3)
t_x_1192                                            1 	(obj:17)
t_x_1194                                            1 	(obj:19)
t_x_1195                                            1 	(obj:61)
t_x_1196                                            1 	(obj:30)
t_x_1201                                            1 	(obj:9)
t_x_1202                                            1 	(obj:8)
t_x_1205                                            1 	(obj:15)
t_x_1208                                            1 	(obj:38)
t_x_1215                                            1 	(obj:7)
t_x_1216                                            1 	(obj:38)
t_x_1218                                            1 	(obj:71)
t_x_1220                                            1 	(obj:4)
t_x_1222                                            1 	(obj:2)
t_x_1223                                            1 	(obj:40)
t_x_1225                                            1 	(obj:28)
t_x_1226                                            1 	(obj:5)
t_x_1230                                            1 	(obj:21)
t_x_1233                                            1 	(obj:26)
t_x_1237                                            1 	(obj:26)
t_x_1250                                            1 	(obj:11)
t_x_1258                                            1 	(obj:16)
t_x_1259                                            1 	(obj:7)
t_x_1262                                            1 	(obj:1)
t_x_1264                                            1 	(obj:33)
t_x_1265                                            1 	(obj:4)
t_x_1266                                            1 	(obj:5)
t_x_1267                                            1 	(obj:22)
t_x_1268                                            1 	(obj:11)
t_x_1270                                            1 	(obj:24)
t_x_1272                                            1 	(obj:12)
t_x_1273                                            1 	(obj:11)
t_x_1274                                            1 	(obj:31)
t_x_1282                                            1 	(obj:1)
t_x_1284                                            1 	(obj:13)
t_x_1288                                            1 	(obj:25)
t_x_1290                                            1 	(obj:10)
t_x_1291                                            1 	(obj:20)
t_x_1292                                            1 	(obj:18)
t_x_1295                                            1 	(obj:3)
t_x_1296                                            1 	(obj:16)
t_x_1298                                            1 	(obj:23)
t_x_1301                                            1 	(obj:38)
t_x_1307                                            1 	(obj:30)
t_x_1312                                            1 	(obj:3)
t_x_1316                                            1 	(obj:10)
t_x_1317                                            1 	(obj:32)
t_x_1324                                            1 	(obj:34)
t_x_1325                                            1 	(obj:12)
t_x_1338                                            1 	(obj:11)
t_x_1343                                            1 	(obj:23)
t_x_1348                                            1 	(obj:1)
t_x_1349                                            1 	(obj:19)
t_x_1353                                            1 	(obj:20)
t_x_1359                                            1 	(obj:1)
t_x_1363                                            1 	(obj:12)
t_x_1366                                            1 	(obj:40)
t_x_1371                                            1 	(obj:11)
t_x_1373                                            1 	(obj:6)
t_x_1375                                            1 	(obj:4)
t_x_1376                                            1 	(obj:17)
t_x_1380                                            1 	(obj:9)
t_x_1386                                            1 	(obj:10)
t_x_1394                                            1 	(obj:14)
t_x_1397                                            1 	(obj:9)
t_x_1398                                            1 	(obj:4)
t_x_1406                                            1 	(obj:55)
t_x_1411                                            1 	(obj:2)
t_x_1415                                            1 	(obj:22)
t_x_1416                                            1 	(obj:20)
t_x_1423                                            1 	(obj:27)
t_x_1435                                            1 	(obj:4)
t_x_1437                                            1 	(obj:17)
t_x_1441                                            1 	(obj:26)
t_x_1449                                            1 	(obj:9)
t_x_1451                                            1 	(obj:4)
t_x_1454                                            1 	(obj:1)
t_x_1457                                            1 	(obj:5)
t_x_1460                                            1 	(obj:24)
t_x_1464                                            1 	(obj:25)
t_x_1465                                            1 	(obj:8)
t_x_1467                                            1 	(obj:4)
t_x_1468                                            1 	(obj:3)
t_x_1469                                            1 	(obj:7)
t_x_1477                                            1 	(obj:4)
t_x_1479                                            1 	(obj:19)
t_x_1481                                            1 	(obj:16)
t_x_1482                                            1 	(obj:1)
t_x_1484                                            1 	(obj:55)
t_x_1487                                            1 	(obj:7)
t_x_1494                                            1 	(obj:30)
t_x_1497                                            1 	(obj:19)
t_x_1509                                            1 	(obj:39)
t_x_1510                                            1 	(obj:8)
t_x_1511                                            1 	(obj:25)
t_x_1515                                            1 	(obj:8)
t_x_1516                                            1 	(obj:34)
t_x_1520                                            1 	(obj:9)
t_x_1526                                            1 	(obj:28)
t_x_1527                                            1 	(obj:7)
t_x_1533                                            1 	(obj:3)
t_x_1536                                            1 	(obj:22)
t_x_1537                                            1 	(obj:7)
t_x_1538                                            1 	(obj:3)
t_x_1540                                            1 	(obj:44)
t_x_1543                                            1 	(obj:35)
t_x_1545                                            1 	(obj:1)
t_x_1549                                            1 	(obj:14)
t_x_1556                                            1 	(obj:7)
t_x_1557                                            1 	(obj:20)
t_x_1558                                            1 	(obj:26)
t_x_1563                                            1 	(obj:24)
t_x_1571                                            1 	(obj:32)
t_x_1575                                            1 	(obj:6)
t_x_1585                                            1 	(obj:10)
t_x_1589                                            1 	(obj:34)
t_x_1591                                            1 	(obj:20)
t_x_1592                                            1 	(obj:8)
t_x_1594                                            1 	(obj:39)
t_x_1597                                            1 	(obj:12)
t_x_1604                                            1 	(obj:14)
t_x_1608                                            1 	(obj:38)
t_x_1612                                            1 	(obj:23)
t_x_1618                                            1 	(obj:25)
t_x_1624                                            1 	(obj:1)
t_x_1627                                            1 	(obj:10)
t_x_1628                                            1 	(obj:19)
t_x_1629                                            1 	(obj:29)
t_x_1630                                            1 	(obj:0)
t_x_1632                                            1 	(obj:38)
t_x_1633                                            1 	(obj:16)
t_x_1636                                            1 	(obj:42)
t_x_1640                                            1 	(obj:6)
t_x_1644                                            1 	(obj:40)
t_x_1649                                            1 	(obj:44)
t_x_1666                                            1 	(obj:25)
t_x_1667                                            1 	(obj:1)
t_x_1672                                            1 	(obj:42)
t_x_1673                                            1 	(obj:6)
t_x_1674                                            1 	(obj:4)
t_x_1675                                            1 	(obj:22)
t_x_1678                                            1 	(obj:31)
t_x_1680                                            1 	(obj:62)
t_x_1685                                            1 	(obj:58)
t_x_1687                                            1 	(obj:13)
t_x_1688                                            1 	(obj:18)
t_x_1698                                            1 	(obj:8)
t_x_1699                                            1 	(obj:11)
t_x_1701                                            1 	(obj:0)
t_x_1711                                            1 	(obj:32)
t_x_1712                                            1 	(obj:15)
t_x_1713                                            1 	(obj:4)
t_x_1717                                            1 	(obj:42)
t_x_1718                                            1 	(obj:22)
t_x_1719                                            1 	(obj:43)
t_x_1720                                            1 	(obj:21)
t_x_1724                                            1 	(obj:18)
t_x_1731                                            1 	(obj:11)
t_x_1733                                            1 	(obj:5)
t_x_1735                                            1 	(obj:14)
t_x_1738                                            1 	(obj:14)
t_x_1740                                            1 	(obj:29)
t_x_1741                                            1 	(obj:38)
t_x_1742                                            1 	(obj:27)
t_x_1749                                            1 	(obj:4)
t_x_1752                                            1 	(obj:3)
t_x_1759                                            1 	(obj:7)
t_x_1760                                            1 	(obj:11)
t_x_1764                                            1 	(obj:4)
t_x_1768                                            1 	(obj:4)
t_x_1773                                            1 	(obj:9)
t_x_1775                                            1 	(obj:13)
t_x_1778                                            1 	(obj:20)
t_x_1786                                            1 	(obj:35)
t_x_1791                                            1 	(obj:5)
t_x_1794                                            1 	(obj:28)
t_x_1795                                            1 	(obj:50)
t_x_1797                                            1 	(obj:27)
t_x_1800                                            1 	(obj:17)
t_x_1801                                            1 	(obj:46)
t_x_1804                                            1 	(obj:1)
t_x_1805                                            1 	(obj:53)
t_x_1810                                            1 	(obj:6)
t_x_1811                                            1 	(obj:48)
t_x_1813                                            1 	(obj:1)
t_x_1821                                            1 	(obj:8)
t_x_1822                                            1 	(obj:16)
t_x_1825                                            1 	(obj:4)
t_x_1828                                            1 	(obj:31)
t_x_1832                                            1 	(obj:18)
t_x_1835                                            1 	(obj:6)
t_x_1839                                            1 	(obj:19)
t_x_1844                                            1 	(obj:4)
t_x_1846                                            1 	(obj:31)
t_x_1847                                            1 	(obj:70)
t_x_1850                                            1 	(obj:18)
t_x_1855                                            1 	(obj:11)
t_x_1868                                            1 	(obj:34)
t_x_1870                                            1 	(obj:3)
t_x_1876                                            1 	(obj:10)
t_x_1879                                            1 	(obj:49)
t_x_1882                                            1 	(obj:17)
t_x_1885                                            1 	(obj:14)
t_x_1886                                            1 	(obj:44)
t_x_1890                                            1 	(obj:35)
t_x_1896                                            1 	(obj:16)
t_x_1903                                            1 	(obj:15)
t_x_1908                                            1 	(obj:7)
t_x_1912                                            1 	(obj:10)
t_x_1915                                            1 	(obj:10)
t_x_1922                                            1 	(obj:6)
t_x_1929                                            1 	(obj:6)
t_x_1930                                            1 	(obj:25)
t_x_1932                                            1 	(obj:25)
t_x_1939                                            1 	(obj:28)
t_x_1947                                            1 	(obj:19)
t_x_1949                                            1 	(obj:29)
t_x_1953                                            1 	(obj:24)
t_x_1959                                            1 	(obj:0)
t_x_1963                                            1 	(obj:4)
t_x_1966                                            1 	(obj:9)
t_x_1970                                            1 	(obj:8)
t_x_1971                                            1 	(obj:5)
t_x_1973                                            1 	(obj:19)
t_x_1975                                            1 	(obj:18)
t_x_1978                                            1 	(obj:14)
t_x_1985                                            1 	(obj:18)
t_x_1988                                            1 	(obj:5)
t_x_1990                                            1 	(obj:11)
t_x_1993                                            1 	(obj:5)
t_x_1994                                            1 	(obj:55)
t_x_1995                                            1 	(obj:6)
t_x_1996                                            1 	(obj:7)
t_x_1997                                            1 	(obj:22)
t_x_1998                                            1 	(obj:13)
